CPXPARAM_MIP_Tolerances_MIPGap                   0
Lazy constraint(s) or lazy constraint callback is present.
    Disabling dual reductions (CPX_PARAM_REDUCE) in presolve.
    Disabling non-linear reductions (CPX_PARAM_PRELINEAR) in presolve.
         Disabling repeat represolve because of lazy constraint/incumbent callback.
Tried aggregator 1 time.
MIP Presolve eliminated 3563 rows and 20 columns.
MIP Presolve modified 8 coefficients.
Reduced MIP has 503 rows, 3642 columns, and 1094 nonzeros.
Reduced MIP has 3257 binaries, 0 generals, 0 SOSs, and 0 indicators.
Presolve time = 0.00 sec. (2.22 ticks)
Probing time = 0.00 sec. (0.54 ticks)
Clique table members: 231.
MIP emphasis: balance optimality and feasibility.
MIP search method: traditional branch-and-cut.
Parallel mode: none, using 1 thread.
Root relaxation solution time = 0.00 sec. (1.68 ticks)

        Nodes                                         Cuts/
   Node  Left     Objective  IInf  Best Integer    Best Bound    ItCnt     Gap         Variable B NodeID Parent  Depth

      0     0       20.0000    44                     20.0000       44         
      0     0       42.0000    29                   Cuts: 205      351         
      0     0       42.0000    23                    Cuts: 37      405         
      0     0       42.0000     9                    Cuts: 24      420         
      0     0       42.0000     7                  MIRcuts: 1      422         
      0     0       42.0000     6                  MIRcuts: 1      433         
*     0+    0                           75.0000       42.0000            44.00%
      0     2       42.0000     6       75.0000       42.0000      433   44.00%                        0             0
Elapsed time = 0.09 sec. (59.81 ticks, tree = 0.01 MB, solutions = 1)
*    29    15      integral     0       47.0000       42.0000      547   10.64%
*    50    30      integral     0       44.0000       42.0000      645    4.55%
*    69    24      integral     0       43.0000       42.0000      758    2.33%
*    88     0      integral     0       42.0000       42.0000      919    0.00%

Clique cuts applied:  117
Cover cuts applied:  1
Implied bound cuts applied:  1
Mixed integer rounding cuts applied:  53
Gomory fractional cuts applied:  1
User cuts applied:  330

Root node processing (before b&c):
  Real time             =    0.09 sec. (59.94 ticks)
Sequential b&c:
  Real time             =    0.14 sec. (134.63 ticks)
                          ------------
Total (root+branch&cut) =    0.23 sec. (194.58 ticks)
